57	3	46	17	37	63	5	68	1	43
90	82	67	90	24	68	46	9	30	86
58	84	36	23	69	34	26	50	74	22
97	65	32	25	91	32	89	9	25	80
48	97	33	21	45	31	49	72	69	61
82	67	43	17	87	73	76	80	4	69
63	34	16	54	2	92	91	99	6	36
92	11	90	19	89	87	49	43	48	6
6	6	23	50	41	38	63	66	93	81
88	25	47	98	81	14	62	77	43	13
